%NProcShared=8
#p HF/6-31G* SCF Pop=(mk,readradii) iop(6/33=2) iop(6/42=6) iop(6/50=1)

 HEM

0 3
C         80.29643      171.29561       78.16469
C         83.09152      172.59377       87.51848
C         83.33409      164.73983       86.23160
C         80.45132      165.92346       78.82975
N         81.44484      170.50105       81.61120
C         81.30000      171.19840       77.06026
C         82.64658      173.65282       88.18689
C         83.70136      163.80899       85.37556
C         78.95730      166.02523       78.63362
N         82.34260      170.89372       84.32302
C         80.68341      171.32200       75.69463
C         78.49224      165.61596       77.27019
N         81.64624      167.66258       81.93196
C         80.98091      168.87182       79.87980
C         81.84792      172.64566       82.65426
C         82.95388      169.76938       86.34528
C         82.28166      165.90552       83.41385
C         80.90397      173.80664       80.00170
C         82.35824      174.54469       85.15370
C         83.69671      167.22013       88.08595
C         81.34556      164.06987       81.21553
C         81.08066      170.13373       80.34650
C         82.20554      172.19307       83.97991
C         82.91570      168.37748       85.88174
C         81.80377      166.36826       82.25577
O         79.48658      171.14521       75.52807
O         77.35919      165.18740       77.11141
C         80.83661      171.26590       79.57094
C         82.43674      173.03530       85.08016
C         83.24674      167.25054       86.65160
C         81.38974      165.55049       81.20752
O         81.44642      171.71669       74.65925
O         79.28673      165.80860       76.20437
C         81.07313      172.36178       80.38167
C         82.75778      172.20274       86.12426
C         83.09799      166.15861       85.82689
C         80.98434      166.36954       80.18631
C         81.47099      171.86450       81.62035
C         82.71024      170.88488       85.62049
C         82.65544      166.67748       84.59163
C         81.19210      167.67071       80.65717
N         82.54671      168.01639       84.64710
Fe        81.99645      169.26962       83.13321
H         79.72422      172.20199       77.99962
H         79.59207      170.48447       78.03956
H         83.72316      171.95674       88.06383
H         83.24355      164.42765       87.25503
H         80.93061      166.50625       78.06088
H         80.72034      164.89517       78.61820
H         81.82952      170.26121       77.14395
H         82.03217      171.98495       77.20667
H         82.94440      173.82719       89.19977
H         81.95462      174.33541       87.80059
H         83.87303      162.79960       85.66596
H         83.89083      164.04265       84.37719
H         78.46755      165.39680       79.36333
H         78.64884      167.03968       78.82684
H         80.77918      168.69551       78.83936
H         81.93108      173.70318       82.53361
H         83.20334      169.87390       87.37344
H         82.37133      164.86991       83.49774
H         81.53397      174.09697       79.16763
H         81.15477      174.47415       80.81454
H         79.87918      174.05654       79.72674
H         82.60702      174.96739       86.10730
H         81.36893      174.92895       84.93377
H         83.05458      175.04852       84.50457
H         83.90994      166.21821       88.45583
H         82.94325      167.62772       88.75040
H         84.60243      167.79479       88.25168
H         82.32945      163.66035       81.38573
H         80.97466      163.65365       80.29122
H         80.69261      163.70847       82.00481

FE=2.00

HEM_ini.gesp
